out/bwp_10_10_1_lp.out
4
3 0    6 1
2 2    5 3
6 2    9 3
0 0    0 1
1 0    1 1
2 0    2 1
7 0    7 1
8 0    8 1
9 0    9 1
0 2    1 3
